N = 5;
Capacity = 14;
Demand = [8, 6, 1, 6, 5];
Distance = [|
  0, 29, 61, 43, 45, 50
| 29, 0, 55, 54, 35, 78
| 61, 55, 0, 102, 19, 89
| 43, 54, 102, 0, 84, 68
| 45, 35, 19, 84, 0, 81
| 50, 78, 89, 68, 81, 0
|];
